; DUP1 SWAP5 POP POP POP POP => SWAP4 ADDMOD POP
(set-option :produce-proofs true)
; 
(set-info :status unknown)
(declare-fun storage_t ((_ BitVec 256) (_ BitVec 256) (_ BitVec 256) (_ BitVec 256) (_ BitVec 256) Int (_ BitVec 256)) (_ BitVec 256))
(declare-fun storage_s ((_ BitVec 256) (_ BitVec 256) (_ BitVec 256) (_ BitVec 256) (_ BitVec 256) Int (_ BitVec 256)) (_ BitVec 256))
(declare-fun exc_halt_t (Int) Bool)
(declare-fun exc_halt_s (Int) Bool)
(declare-fun stack_t ((_ BitVec 256) (_ BitVec 256) (_ BitVec 256) (_ BitVec 256) (_ BitVec 256) Int (_ BitVec 6)) (_ BitVec 256))
(declare-fun stack_s ((_ BitVec 256) (_ BitVec 256) (_ BitVec 256) (_ BitVec 256) (_ BitVec 256) Int (_ BitVec 6)) (_ BitVec 256))
(declare-fun sc_t (Int) (_ BitVec 6))
(declare-fun sc_s (Int) (_ BitVec 6))
(declare-fun used_gas_t ((_ BitVec 256) (_ BitVec 256) (_ BitVec 256) (_ BitVec 256) (_ BitVec 256) Int) Int)
(declare-fun used_gas_s ((_ BitVec 256) (_ BitVec 256) (_ BitVec 256) (_ BitVec 256) (_ BitVec 256) Int) Int)
(assert
 (exists ((x_0 (_ BitVec 256)) (x_1 (_ BitVec 256)) (x_2 (_ BitVec 256)) (x_3 (_ BitVec 256)) (x_4 (_ BitVec 256)) )(let (($x4579 (forall ((w (_ BitVec 256)) )(let ((?x8675 (storage_t x_0 x_1 x_2 x_3 x_4 3 w)))
 (let ((?x7422 (storage_s x_0 x_1 x_2 x_3 x_4 6 w)))
 (= ?x7422 ?x8675))))
 ))
 (let (($x2075 (exc_halt_t 3)))
 (let (($x772 (exc_halt_s 6)))
 (let (($x1674 (= $x772 $x2075)))
 (let (($x2472 (forall ((n (_ BitVec 6)) )(let ((?x9101 (stack_t x_0 x_1 x_2 x_3 x_4 3 n)))
 (let ((?x10615 (stack_s x_0 x_1 x_2 x_3 x_4 6 n)))
 (let (($x6869 (= ?x10615 ?x9101)))
 (let ((?x2725 (sc_t 3)))
 (let (($x4906 (bvsle ?x2725 n)))
 (or $x4906 $x6869)))))))
 ))
 (let ((?x2725 (sc_t 3)))
 (let ((?x926 (sc_s 6)))
 (let (($x4493 (= ?x926 ?x2725)))
 (let ((?x4869 (used_gas_t x_0 x_1 x_2 x_3 x_4 0)))
 (let ((?x9385 (used_gas_s x_0 x_1 x_2 x_3 x_4 0)))
 (let (($x387 (= ?x9385 ?x4869)))
 (let (($x5707 (forall ((w (_ BitVec 256)) )(let ((?x1939 (storage_t x_0 x_1 x_2 x_3 x_4 0 w)))
 (let ((?x7964 (storage_s x_0 x_1 x_2 x_3 x_4 0 w)))
 (= ?x7964 ?x1939))))
 ))
 (let (($x56 (exc_halt_t 0)))
 (let (($x57 (exc_halt_s 0)))
 (let (($x58 (= $x57 $x56)))
 (let (($x470 (forall ((n (_ BitVec 6)) )(let ((?x63 (sc_t 0)))
 (let (($x6321 (bvsle ?x63 n)))
 (let ((?x3926 (stack_t x_0 x_1 x_2 x_3 x_4 0 n)))
 (let ((?x8150 (stack_s x_0 x_1 x_2 x_3 x_4 0 n)))
 (let (($x3766 (= ?x8150 ?x3926)))
 (or $x3766 $x6321)))))))
 ))
 (let ((?x63 (sc_t 0)))
 (let ((?x72 (sc_s 0)))
 (let (($x73 (= ?x72 ?x63)))
 (let (($x6303 (= $x2075 (or (exc_halt_t 2) (not (bvsle (_ bv0 6) (bvadd (_ bv63 6) (sc_t 2))))))))
 (let (($x4536 (forall ((w (_ BitVec 256)) )(let ((?x5303 (storage_t x_0 x_1 x_2 x_3 x_4 2 w)))
 (let ((?x8675 (storage_t x_0 x_1 x_2 x_3 x_4 3 w)))
 (= ?x8675 ?x5303))))
 ))
 (let (($x5961 (forall ((n (_ BitVec 6)) )(let ((?x2714 (sc_t 2)))
 (let ((?x11371 (bvadd (_ bv63 6) ?x2714)))
 (let (($x5361 (bvsle ?x11371 n)))
 (let ((?x2442 (stack_t x_0 x_1 x_2 x_3 x_4 2 n)))
 (let ((?x9101 (stack_t x_0 x_1 x_2 x_3 x_4 3 n)))
 (or (= ?x9101 ?x2442) $x5361)))))))
 ))
 (let ((?x2714 (sc_t 2)))
 (let ((?x11371 (bvadd (_ bv63 6) ?x2714)))
 (let (($x5666 (= ?x2725 ?x11371)))
 (let (($x3556 (= (used_gas_t x_0 x_1 x_2 x_3 x_4 3) (+ 2 (used_gas_t x_0 x_1 x_2 x_3 x_4 2)))))
 (let (($x5252 (exc_halt_t 2)))
 (let (($x9999 (= $x5252 (or (exc_halt_t 1) (not (bvsle (_ bv0 6) (bvadd (_ bv61 6) (sc_t 1))))))))
 (let (($x406 (forall ((w (_ BitVec 256)) )(let ((?x424 (storage_t x_0 x_1 x_2 x_3 x_4 1 w)))
 (let ((?x5303 (storage_t x_0 x_1 x_2 x_3 x_4 2 w)))
 (= ?x5303 ?x424))))
 ))
 (let (($x4090 (forall ((n (_ BitVec 6)) )(let ((?x3622 (stack_t x_0 x_1 x_2 x_3 x_4 1 n)))
 (let ((?x2442 (stack_t x_0 x_1 x_2 x_3 x_4 2 n)))
 (let ((?x10950 (sc_t 1)))
 (let ((?x7631 (bvadd (_ bv61 6) ?x10950)))
 (let (($x925 (bvsle ?x7631 n)))
 (or $x925 (= ?x2442 ?x3622))))))))
 ))
 (let ((?x4572 (used_gas_t x_0 x_1 x_2 x_3 x_4 2)))
 (let ((?x10950 (sc_t 1)))
 (let ((?x7631 (bvadd (_ bv61 6) ?x10950)))
 (let ((?x1920 (stack_t x_0 x_1 x_2 x_3 x_4 1 ?x7631)))
 (let ((?x7982 (bvadd (_ bv62 6) ?x10950)))
 (let ((?x7668 (stack_t x_0 x_1 x_2 x_3 x_4 1 ?x7982)))
 (let ((?x2841 (bvadd (_ bv63 6) ?x10950)))
 (let ((?x4600 (stack_t x_0 x_1 x_2 x_3 x_4 1 ?x2841)))
 (let ((?x473 (bvurem_i (bvadd (concat (_ bv0 1) ?x4600) (concat (_ bv0 1) ?x7668)) (concat (_ bv0 1) ?x1920))))
 (let (($x8009 (= (stack_t x_0 x_1 x_2 x_3 x_4 2 ?x11371) (ite (= ?x1920 (_ bv0 256)) (_ bv0 256) ((_ extract 255 0) ?x473)))))
 (let (($x3750 (forall ((w (_ BitVec 256)) )(let ((?x1939 (storage_t x_0 x_1 x_2 x_3 x_4 0 w)))
 (let ((?x424 (storage_t x_0 x_1 x_2 x_3 x_4 1 w)))
 (= ?x424 ?x1939))))
 ))
 (let (($x903 (forall ((n (_ BitVec 6)) )(let ((?x3926 (stack_t x_0 x_1 x_2 x_3 x_4 0 n)))
 (let ((?x3622 (stack_t x_0 x_1 x_2 x_3 x_4 1 n)))
 (or (= ?x3622 ?x3926) (bvsle (bvadd (_ bv59 6) (sc_t 0)) n)))))
 ))
 (let (($x9610 (= (stack_t x_0 x_1 x_2 x_3 x_4 1 (bvadd (_ bv60 6) ?x10950)) (stack_t x_0 x_1 x_2 x_3 x_4 0 (bvadd (_ bv60 6) ?x63)))))
 (let (($x8635 (= (stack_t x_0 x_1 x_2 x_3 x_4 1 (bvadd (_ bv59 6) ?x10950)) (stack_t x_0 x_1 x_2 x_3 x_4 0 (bvadd (_ bv63 6) ?x63)))))
 (let (($x5428 (= $x772 (or (exc_halt_s 5) (not (bvsle (_ bv0 6) (bvadd (_ bv63 6) (sc_s 5))))))))
 (let (($x4447 (forall ((w (_ BitVec 256)) )(let ((?x7655 (storage_s x_0 x_1 x_2 x_3 x_4 5 w)))
 (let ((?x7422 (storage_s x_0 x_1 x_2 x_3 x_4 6 w)))
 (= ?x7422 ?x7655))))
 ))
 (let (($x4821 (forall ((n (_ BitVec 6)) )(let ((?x9887 (stack_s x_0 x_1 x_2 x_3 x_4 5 n)))
 (let ((?x10615 (stack_s x_0 x_1 x_2 x_3 x_4 6 n)))
 (let ((?x805 (sc_s 5)))
 (let ((?x5665 (bvadd (_ bv63 6) ?x805)))
 (let (($x3875 (bvsle ?x5665 n)))
 (or $x3875 (= ?x10615 ?x9887))))))))
 ))
 (let ((?x805 (sc_s 5)))
 (let ((?x5665 (bvadd (_ bv63 6) ?x805)))
 (let (($x10736 (= ?x926 ?x5665)))
 (let (($x7769 (= (used_gas_s x_0 x_1 x_2 x_3 x_4 6) (+ 2 (used_gas_s x_0 x_1 x_2 x_3 x_4 5)))))
 (let (($x3979 (exc_halt_s 5)))
 (let (($x11130 (= $x3979 (or (exc_halt_s 4) (not (bvsle (_ bv0 6) (bvadd (_ bv63 6) (sc_s 4))))))))
 (let (($x4089 (forall ((w (_ BitVec 256)) )(let ((?x8531 (storage_s x_0 x_1 x_2 x_3 x_4 4 w)))
 (let ((?x7655 (storage_s x_0 x_1 x_2 x_3 x_4 5 w)))
 (= ?x7655 ?x8531))))
 ))
 (let (($x64 (forall ((n (_ BitVec 6)) )(let ((?x4305 (sc_s 4)))
 (let ((?x7007 (bvadd (_ bv63 6) ?x4305)))
 (let (($x11838 (bvsle ?x7007 n)))
 (let ((?x4064 (stack_s x_0 x_1 x_2 x_3 x_4 4 n)))
 (let ((?x9887 (stack_s x_0 x_1 x_2 x_3 x_4 5 n)))
 (or (= ?x9887 ?x4064) $x11838)))))))
 ))
 (let ((?x4305 (sc_s 4)))
 (let ((?x7007 (bvadd (_ bv63 6) ?x4305)))
 (let (($x2595 (= ?x805 ?x7007)))
 (let ((?x10446 (used_gas_s x_0 x_1 x_2 x_3 x_4 5)))
 (let (($x7172 (exc_halt_s 4)))
 (let (($x2399 (= $x7172 (or (exc_halt_s 3) (not (bvsle (_ bv0 6) (bvadd (_ bv63 6) (sc_s 3))))))))
 (let (($x7778 (forall ((w (_ BitVec 256)) )(let ((?x8357 (storage_s x_0 x_1 x_2 x_3 x_4 3 w)))
 (let ((?x8531 (storage_s x_0 x_1 x_2 x_3 x_4 4 w)))
 (= ?x8531 ?x8357))))
 ))
 (let (($x6326 (forall ((n (_ BitVec 6)) )(let ((?x275 (sc_s 3)))
 (let ((?x10342 (bvadd (_ bv63 6) ?x275)))
 (let (($x7041 (bvsle ?x10342 n)))
 (let ((?x3957 (stack_s x_0 x_1 x_2 x_3 x_4 3 n)))
 (let ((?x4064 (stack_s x_0 x_1 x_2 x_3 x_4 4 n)))
 (or (= ?x4064 ?x3957) $x7041)))))))
 ))
 (let ((?x275 (sc_s 3)))
 (let ((?x10342 (bvadd (_ bv63 6) ?x275)))
 (let (($x5912 (= ?x4305 ?x10342)))
 (let ((?x8523 (used_gas_s x_0 x_1 x_2 x_3 x_4 4)))
 (let (($x292 (exc_halt_s 3)))
 (let (($x11088 (= $x292 (or (exc_halt_s 2) (not (bvsle (_ bv0 6) (bvadd (_ bv63 6) (sc_s 2))))))))
 (let (($x466 (forall ((w (_ BitVec 256)) )(let ((?x6924 (storage_s x_0 x_1 x_2 x_3 x_4 2 w)))
 (let ((?x8357 (storage_s x_0 x_1 x_2 x_3 x_4 3 w)))
 (= ?x8357 ?x6924))))
 ))
 (let (($x10650 (forall ((n (_ BitVec 6)) )(let ((?x218 (sc_s 2)))
 (let ((?x8251 (bvadd (_ bv63 6) ?x218)))
 (let (($x11081 (bvsle ?x8251 n)))
 (let ((?x11790 (stack_s x_0 x_1 x_2 x_3 x_4 2 n)))
 (let ((?x3957 (stack_s x_0 x_1 x_2 x_3 x_4 3 n)))
 (or (= ?x3957 ?x11790) $x11081)))))))
 ))
 (let ((?x218 (sc_s 2)))
 (let ((?x8251 (bvadd (_ bv63 6) ?x218)))
 (let (($x11419 (= ?x275 ?x8251)))
 (let ((?x7523 (used_gas_s x_0 x_1 x_2 x_3 x_4 3)))
 (let (($x247 (exc_halt_s 2)))
 (let (($x6058 (= $x247 (or (exc_halt_s 1) (not (bvsle (_ bv0 6) (bvadd (_ bv58 6) (sc_s 1))))))))
 (let (($x9251 (forall ((w (_ BitVec 256)) )(let ((?x9226 (storage_s x_0 x_1 x_2 x_3 x_4 1 w)))
 (let ((?x6924 (storage_s x_0 x_1 x_2 x_3 x_4 2 w)))
 (= ?x6924 ?x9226))))
 ))
 (let (($x9818 (forall ((n (_ BitVec 6)) )(let ((?x2138 (stack_s x_0 x_1 x_2 x_3 x_4 1 n)))
 (let ((?x11790 (stack_s x_0 x_1 x_2 x_3 x_4 2 n)))
 (or (= ?x11790 ?x2138) (bvsle (bvadd (_ bv58 6) (sc_s 1)) n)))))
 ))
 (let ((?x154 (sc_s 1)))
 (let (($x11037 (= ?x218 ?x154)))
 (let ((?x7510 (used_gas_s x_0 x_1 x_2 x_3 x_4 2)))
 (let (($x5888 (= (stack_s x_0 x_1 x_2 x_3 x_4 2 (bvadd (_ bv62 6) ?x218)) (stack_s x_0 x_1 x_2 x_3 x_4 1 (bvadd (_ bv62 6) ?x154)))))
 (let (($x9045 (= (stack_s x_0 x_1 x_2 x_3 x_4 2 (bvadd (_ bv61 6) ?x218)) (stack_s x_0 x_1 x_2 x_3 x_4 1 (bvadd (_ bv61 6) ?x154)))))
 (let (($x1524 (= (stack_s x_0 x_1 x_2 x_3 x_4 2 (bvadd (_ bv60 6) ?x218)) (stack_s x_0 x_1 x_2 x_3 x_4 1 (bvadd (_ bv60 6) ?x154)))))
 (let (($x1744 (= (stack_s x_0 x_1 x_2 x_3 x_4 2 (bvadd (_ bv59 6) ?x218)) (stack_s x_0 x_1 x_2 x_3 x_4 1 (bvadd (_ bv59 6) ?x154)))))
 (let ((?x2527 (bvadd (_ bv63 6) ?x154)))
 (let ((?x4280 (stack_s x_0 x_1 x_2 x_3 x_4 1 ?x2527)))
 (let (($x5417 (= (stack_s x_0 x_1 x_2 x_3 x_4 2 ?x8251) (stack_s x_0 x_1 x_2 x_3 x_4 1 (bvadd (_ bv58 6) ?x154)))))
 (let (($x9123 (not (= ((_ extract 6 6) (bvadd (_ bv1 7) (concat (_ bv0 1) ?x72))) (_ bv0 1)))))
 (let (($x3261 (not (bvsle (_ bv0 6) (bvadd (_ bv63 6) ?x72)))))
 (let (($x189 (exc_halt_s 1)))
 (let (($x10151 (forall ((w (_ BitVec 256)) )(let ((?x7964 (storage_s x_0 x_1 x_2 x_3 x_4 0 w)))
 (let ((?x9226 (storage_s x_0 x_1 x_2 x_3 x_4 1 w)))
 (= ?x9226 ?x7964))))
 ))
 (let (($x7669 (forall ((n (_ BitVec 6)) )(let ((?x8150 (stack_s x_0 x_1 x_2 x_3 x_4 0 n)))
 (let ((?x2138 (stack_s x_0 x_1 x_2 x_3 x_4 1 n)))
 (let ((?x72 (sc_s 0)))
 (let ((?x10756 (bvadd (_ bv63 6) ?x72)))
 (let (($x1417 (bvsle ?x10756 n)))
 (or $x1417 (= ?x2138 ?x8150))))))))
 ))
 (let (($x481 (= ?x154 (bvadd (_ bv1 6) ?x72))))
 (let ((?x10756 (bvadd (_ bv63 6) ?x72)))
 (let ((?x1986 (stack_s x_0 x_1 x_2 x_3 x_4 0 ?x10756)))
 (let (($x6508 (forall ((w (_ BitVec 256)) )(let ((?x7964 (storage_s x_0 x_1 x_2 x_3 x_4 0 w)))
 (= ?x7964 (_ bv0 256))))
 ))
 (let (($x7869 (= ?x9385 0)))
 (let (($x1438 (not $x57)))
 (let (($x5714 (= (stack_s x_0 x_1 x_2 x_3 x_4 0 (_ bv4 6)) x_4)))
 (let (($x8366 (= (stack_s x_0 x_1 x_2 x_3 x_4 0 (_ bv3 6)) x_3)))
 (let (($x2180 (= (stack_s x_0 x_1 x_2 x_3 x_4 0 (_ bv2 6)) x_2)))
 (let (($x9658 (= (stack_s x_0 x_1 x_2 x_3 x_4 0 (_ bv1 6)) x_1)))
 (let (($x8301 (= (stack_s x_0 x_1 x_2 x_3 x_4 0 (_ bv0 6)) x_0)))
 (let (($x8002 (= ?x72 (_ bv5 6))))
 (and $x8002 $x8301 $x9658 $x2180 $x8366 $x5714 $x1438 $x7869 $x6508 (= ?x4280 ?x1986) (= (stack_s x_0 x_1 x_2 x_3 x_4 1 ?x10756) ?x1986) (= (used_gas_s x_0 x_1 x_2 x_3 x_4 1) (+ 3 ?x9385)) $x481 $x7669 $x10151 (= $x189 (or $x57 $x3261 $x9123)) $x5417 (= (stack_s x_0 x_1 x_2 x_3 x_4 2 (bvadd (_ bv58 6) ?x218)) ?x4280) $x1744 $x1524 $x9045 $x5888 (= ?x7510 (+ 3 (used_gas_s x_0 x_1 x_2 x_3 x_4 1))) $x11037 $x9818 $x9251 $x6058 (= ?x7523 (+ 2 ?x7510)) $x11419 $x10650 $x466 $x11088 (= ?x8523 (+ 2 ?x7523)) $x5912 $x6326 $x7778 $x2399 (= ?x10446 (+ 2 ?x8523)) $x2595 $x64 $x4089 $x11130 $x7769 $x10736 $x4821 $x4447 $x5428 (= ?x4600 (stack_t x_0 x_1 x_2 x_3 x_4 0 (bvadd (_ bv59 6) ?x63))) $x8635 $x9610 (= ?x1920 (stack_t x_0 x_1 x_2 x_3 x_4 0 (bvadd (_ bv61 6) ?x63))) (= ?x7668 (stack_t x_0 x_1 x_2 x_3 x_4 0 (bvadd (_ bv62 6) ?x63))) (= (used_gas_t x_0 x_1 x_2 x_3 x_4 1) (+ 3 ?x4869)) (= ?x10950 ?x63) $x903 $x3750 (= (exc_halt_t 1) (or $x56 (not (bvsle (_ bv0 6) (bvadd (_ bv59 6) ?x63))))) $x8009 (= ?x4572 (+ 8 (used_gas_t x_0 x_1 x_2 x_3 x_4 1))) (= ?x2714 ?x7982) $x4090 $x406 $x9999 $x3556 $x5666 $x5961 $x4536 $x6303 $x73 $x470 $x58 $x5707 $x387 (not (and $x4493 $x2472 $x1674 $x4579))))))))))))))))))))))))))))))))))))))))))))))))))))))))))))))))))))))))))))))))))))))))))))))))))))))))))))))
 )
(check-sat)
(get-proof)
